c Maximum weighted independent set instances generated from exactcolors.
c scalef: 24403223 .
c An independent set of value > 24403223 defines an improving stable sets for coloring.
p edge 88 146
e 1 3
e 1 7
e 1 11
e 1 17
e 2 5
e 2 24
e 2 25
e 2 77
e 3 4
e 3 78
e 3 79
e 4 14
e 4 26
e 4 80
e 5 7
e 5 9
e 5 10
e 6 7
e 6 8
e 6 18
e 6 19
e 8 9
e 8 10
e 9 10
e 11 13
e 11 60
e 11 61
e 12 13
e 12 16
e 12 56
e 12 59
e 13 33
e 13 34
e 14 15
e 14 39
e 14 40
e 15 21
e 15 22
e 15 50
e 16 51
e 16 52
e 16 62
e 17 18
e 17 19
e 18 19
e 20 21
e 20 22
e 20 57
e 20 58
e 21 75
e 21 76
e 22 74
e 23 24
e 23 27
e 23 28
e 23 53
e 24 30
e 24 31
e 25 29
e 25 42
e 25 43
e 26 28
e 26 35
e 27 28
e 27 36
e 27 37
e 29 30
e 29 44
e 30 31
e 31 45
e 31 46
e 32 33
e 32 34
e 32 66
e 32 67
e 33 34
e 35 36
e 35 37
e 36 84
e 36 85
e 37 83
e 38 39
e 38 40
e 38 63
e 38 71
e 39 40
e 41 42
e 41 43
e 41 54
e 41 55
e 42 43
e 44 46
e 44 47
e 45 46
e 45 48
e 45 49
e 47 48
e 47 49
e 48 49
e 50 51
e 50 52
e 51 68
e 52 69
e 52 70
e 53 54
e 53 55
e 54 55
e 56 57
e 56 58
e 57 58
e 59 60
e 59 61
e 60 61
e 62 63
e 62 64
e 63 64
e 64 72
e 64 73
e 65 66
e 65 67
e 65 81
e 65 82
e 66 67
e 68 69
e 68 70
e 69 70
e 71 72
e 71 73
e 72 73
e 74 75
e 74 87
e 74 88
e 75 76
e 76 86
e 77 78
e 77 79
e 78 79
e 80 81
e 80 82
e 81 82
e 83 84
e 83 85
e 84 85
e 86 87
e 86 88
e 87 88
n 1 841490
n 2 841490
n 3 841490
n 4 841490
n 5 841490
n 6 841490
n 7 841490
n 8 841490
n 9 841490
n 10 841490
n 11 841490
n 12 841490
n 13 841490
n 14 841490
n 15 841490
n 16 841490
n 17 841490
n 18 841490
n 19 841490
n 20 841490
n 21 841490
n 22 841490
n 23 841490
n 24 841490
n 25 841490
n 26 841490
n 27 841490
n 28 841490
n 29 841490
n 30 841490
n 31 841490
n 32 841490
n 33 841490
n 34 841490
n 35 841490
n 36 841490
n 37 841490
n 38 841490
n 39 841490
n 40 841490
n 41 841490
n 42 841490
n 43 841490
n 44 841490
n 45 841490
n 46 841490
n 47 841490
n 48 841490
n 49 841490
n 50 841490
n 51 841490
n 52 841490
n 53 841490
n 54 841490
n 55 841490
n 56 841490
n 57 841490
n 58 841490
n 59 841490
n 60 841490
n 61 841490
n 62 841490
n 63 841490
n 64 841490
n 65 841490
n 66 841490
n 67 841490
n 68 841490
n 69 841490
n 70 841490
n 71 841490
n 72 841490
n 73 841490
n 74 841490
n 75 841490
n 76 841490
n 77 841490
n 78 841490
n 79 841490
n 80 841490
n 81 841490
n 82 841490
n 83 841490
n 84 841490
n 85 841490
n 86 841490
n 87 841490
n 88 841490
